feasible solution found by trivial heuristic after 0.0 seconds, objective value -1.000000e+05
presolving:
(round 1, fast)       137 del vars, 52 del conss, 0 add conss, 6 chg bounds, 8 chg sides, 16 chg coeffs, 0 upgd conss, 0 impls, 0 clqs
   (0.0s) running MILP presolver
   (0.0s) MILP presolver found nothing
(round 2, exhaustive) 138 del vars, 52 del conss, 0 add conss, 6 chg bounds, 8 chg sides, 16 chg coeffs, 2592 upgd conss, 0 impls, 0 clqs
   (0.1s) probing: 51/2697 (1.9%) - 0 fixings, 0 aggregations, 0 implications, 0 bound changes
   (0.1s) probing aborted: 50/50 successive totally useless probings
   (0.1s) symmetry computation started: requiring (bin +, int -, cont +), (fixed: bin -, int +, cont -)
   (0.1s) no symmetry present
presolving (3 rounds: 3 fast, 2 medium, 2 exhaustive):
 138 deleted vars, 52 deleted constraints, 0 added constraints, 6 tightened bounds, 0 added holes, 8 changed sides, 16 changed coefficients
 0 implications, 0 cliques
presolved problem has 2697 variables (2697 bin, 0 int, 0 impl, 0 cont) and 2592 constraints
   2592 constraints of type <logicor>
Presolving Time: 0.09

 time | node  | left  |LP iter|LP it/n|mem/heur|mdpt |vars |cons |rows |cuts |sepa|confs|strbr|  dualbound   | primalbound  |  gap   | compl. 
t 0.1s|     1 |     0 |     0 |     - | trivial|   0 |2697 |2592 |   0 |   0 |  0 |   0 |   0 | 1.993551e+03 |-5.984488e+02 |    Inf | unknown
p 0.1s|     1 |     0 |     0 |     - |   locks|   0 |2697 |2592 |2592 |   0 |  0 |   0 |   0 | 1.993551e+03 | 1.458551e+03 |  36.68%| unknown
  0.2s|     1 |     0 |   108 |     - |    26M |   0 |2697 |2592 |2592 |   0 |  0 |   0 |   0 | 1.993551e+03 | 1.458551e+03 |  36.68%| unknown
  0.2s|     1 |     0 |   194 |     - |    28M |   0 |2697 |2592 |2600 |   8 |  1 |   0 |   0 | 1.989551e+03 | 1.458551e+03 |  36.41%| unknown
  0.2s|     1 |     0 |   226 |     - |    28M |   0 |2697 |2592 |2609 |  17 |  2 |   0 |   0 | 1.987051e+03 | 1.458551e+03 |  36.23%| unknown
  0.3s|     1 |     0 |   295 |     - |    28M |   0 |2697 |2592 |2620 |  28 |  3 |   0 |   0 | 1.984051e+03 | 1.458551e+03 |  36.03%| unknown
  0.3s|     1 |     0 |   349 |     - |    30M |   0 |2697 |2592 |2630 |  38 |  4 |   0 |   0 | 1.981551e+03 | 1.458551e+03 |  35.86%| unknown
  0.3s|     1 |     0 |   379 |     - |    30M |   0 |2697 |2592 |2636 |  44 |  5 |   0 |   0 | 1.979551e+03 | 1.458551e+03 |  35.72%| unknown
  0.4s|     1 |     0 |   434 |     - |    30M |   0 |2697 |2592 |2645 |  53 |  6 |   0 |   0 | 1.976551e+03 | 1.458551e+03 |  35.51%| unknown
  0.4s|     1 |     0 |   479 |     - |    31M |   0 |2697 |2592 |2652 |  60 |  7 |   0 |   0 | 1.974051e+03 | 1.458551e+03 |  35.34%| unknown
  0.4s|     1 |     0 |   535 |     - |    31M |   0 |2697 |2592 |2663 |  71 |  8 |   0 |   0 | 1.969551e+03 | 1.458551e+03 |  35.03%| unknown
  0.5s|     1 |     0 |   560 |     - |    31M |   0 |2697 |2592 |2671 |  79 |  9 |   0 |   0 | 1.968051e+03 | 1.458551e+03 |  34.93%| unknown
  0.5s|     1 |     0 |   596 |     - |    32M |   0 |2697 |2592 |2679 |  87 | 10 |   0 |   0 | 1.966551e+03 | 1.458551e+03 |  34.83%| unknown
  0.5s|     1 |     0 |   627 |     - |    32M |   0 |2697 |2592 |2686 |  94 | 11 |   0 |   0 | 1.966051e+03 | 1.458551e+03 |  34.79%| unknown
  0.6s|     1 |     0 |   664 |     - |    32M |   0 |2697 |2592 |2694 | 102 | 12 |   0 |   0 | 1.964551e+03 | 1.458551e+03 |  34.69%| unknown
 time | node  | left  |LP iter|LP it/n|mem/heur|mdpt |vars |cons |rows |cuts |sepa|confs|strbr|  dualbound   | primalbound  |  gap   | compl. 
  0.6s|     1 |     0 |   714 |     - |    32M |   0 |2697 |2592 |2701 | 109 | 13 |   0 |   0 | 1.962551e+03 | 1.458551e+03 |  34.55%| unknown
  0.6s|     1 |     0 |   740 |     - |    33M |   0 |2697 |2592 |2710 | 118 | 14 |   0 |   0 | 1.960551e+03 | 1.458551e+03 |  34.42%| unknown
  0.7s|     1 |     0 |   752 |     - |    33M |   0 |2697 |2592 |2717 | 125 | 15 |   0 |   0 | 1.960051e+03 | 1.458551e+03 |  34.38%| unknown
  0.7s|     1 |     0 |   771 |     - |    33M |   0 |2697 |2592 |2722 | 130 | 16 |   0 |   0 | 1.958301e+03 | 1.458551e+03 |  34.26%| unknown
  0.7s|     1 |     0 |   800 |     - |    34M |   0 |2697 |2592 |2716 | 136 | 17 |   0 |   0 | 1.956801e+03 | 1.458551e+03 |  34.16%| unknown
  0.7s|     1 |     0 |   843 |     - |    34M |   0 |2697 |2592 |2721 | 141 | 18 |   0 |   0 | 1.954801e+03 | 1.458551e+03 |  34.02%| unknown
  0.8s|     1 |     0 |   848 |     - |    34M |   0 |2697 |2592 |2725 | 145 | 19 |   0 |   0 | 1.954801e+03 | 1.458551e+03 |  34.02%| unknown
  0.8s|     1 |     0 |   866 |     - |    34M |   0 |2697 |2592 |2729 | 149 | 20 |   0 |   0 | 1.953801e+03 | 1.458551e+03 |  33.95%| unknown
  2.0s|     1 |     2 |  2955 |     - |    35M |   0 |2697 |2592 |2729 | 149 | 22 |   0 |  31 | 1.930801e+03 | 1.458551e+03 |  32.38%| unknown
 18.9s|   100 |   101 | 23398 | 227.6 |    40M |  27 |2697 |2602 |2690 | 309 |  1 |  10 |1530 | 1.907551e+03 | 1.458551e+03 |  30.78%| unknown
 25.4s|   200 |   201 | 54809 | 271.1 |    51M |  27 |2697 |2615 |2781 | 754 |  1 |  23 |1844 | 1.887301e+03 | 1.458551e+03 |  29.40%| unknown
L25.5s|   201 |   202 | 55132 | 271.3 |    rins|  27 |2697 |2615 |2781 | 754 |  1 |  23 |1852 | 1.887301e+03 | 1.463551e+03 |  28.95%| unknown
 32.3s|   300 |   301 | 90244 | 298.9 |    61M |  27 |2697 |2650 |2884 |1520 |  3 |  58 |2180 | 1.881051e+03 | 1.463551e+03 |  28.53%| unknown
*39.9s|   368 |   163 |134754 | 364.8 |    LP  |  27 |2697 |2592 |2892 |2440 |  1 |  71 |2440 | 1.880884e+03 | 1.670551e+03 |  12.59%|   6.06%
*41.7s|   384 |   106 |147197 | 382.1 |    LP  |  27 |2697 |2592 |2881 |2440 |  1 |  71 |2512 | 1.880884e+03 | 1.701551e+03 |  10.54%|   9.42%
 time | node  | left  |LP iter|LP it/n|mem/heur|mdpt |vars |cons |rows |cuts |sepa|confs|strbr|  dualbound   | primalbound  |  gap   | compl. 
 42.8s|   400 |   112 |155085 | 386.5 |    76M |  27 |2697 |2592 |2870 |2440 |  0 |  71 |2556 | 1.878051e+03 | 1.701551e+03 |  10.37%|  11.44%
 46.6s|   500 |   116 |184413 | 367.8 |    76M |  27 |2697 |2592 |2868 |2440 |  1 |  71 |2740 | 1.865551e+03 | 1.701551e+03 |   9.64%|  22.53%
 51.5s|   600 |   102 |216434 | 359.9 |    76M |  27 |2697 |2592 |2880 |2440 |  1 |  71 |2963 | 1.855551e+03 | 1.701551e+03 |   9.05%|  36.69%
 59.7s|   700 |    70 |255155 | 363.8 |    76M |  27 |2697 |2592 |2911 |2440 |  0 |  71 |3307 | 1.842551e+03 | 1.701551e+03 |   8.29%|  55.68%
 70.4s|   800 |    32 |304836 | 380.4 |    76M |  27 |2697 |2592 |2925 |2440 |  0 |  71 |3859 | 1.835301e+03 | 1.701551e+03 |   7.86%|  79.93%

SCIP Status        : problem is solved [optimal solution found]
Solving Time (sec) : 75.27
Solving Nodes      : 848
Primal Bound       : +1.70155116040808e+03 (65 solutions)
Dual Bound         : +1.70155116040808e+03
Gap                : 0.00 %
Solve Status: optimal
Solve Time: 75.28 seconds
